n= 1
m= 50
1000
155	4	4
84	14	7
76	16	8
40	14	7
156	4	1
113	2	2
187	9	9
137	9	9
49	21	7
117	20	5
34	27	9
113	3	1
91	14	7
199	27	9
183	6	3
152	18	6
105	9	9
21	10	5
169	16	8
91	6	2
187	21	7
193	9	3
16	10	5
191	4	2
176	12	6
134	3	1
27	4	2
134	6	6
120	2	1
94	12	6
51	6	6
196	8	2
53	6	6
25	12	3
102	4	4
154	32	8
64	32	8
10	8	8
12	3	1
97	36	9
118	4	2
71	3	1
88	8	4
186	9	9
89	3	3
185	28	7
188	10	5
178	4	2
32	12	4
151	20	5
